Maximize
F - f1 - f2

Subject to
F - 2y1 - 6y14 - 2y27 - 8y29 - 4y82 - 0y111 - 2y168 - 2y88 - 8y134 - 8y72 - 8y130 - 4y56 - 4y57 - 6y124 - 8y11 - 8y167 - 4y110 - 8y2 - 4y122 - 8y181 - 8y133 = 0
f1 - 0.006668s1 - 0.006668s14 - 0.006668s27 - 0.006668s29 - 0.006668s82 - 0.006668s111 - 0.006668s168 - 0.006668s88 - 0.006668s134 - 0.006668s72 - 0.006668s130 - 0.006668s56 - 0.006668s57 - 0.006668s124 - 0.006668s11 - 0.006668s167 - 0.006668s110 - 0.006668s2 - 0.006668s122 - 0.006668s181 - 0.006668s133  = 0
f2 - 2.07y1 - 2.08y14 - 3.36y27 - 3.37y29 - 1.84y82 - 2.43y111 - 2.33y168 - 1.67y88 - 1.06y134 - 1.04y72 - 1.34y130 - 1.14y56 - 2.09y57 - 1.77y124 - 0.50y11 - 0.61y167 - 0.80y110 - 0.29y2 - 0.19y122 - 0.14y181 - 0.17y133 = 0

x33x130x1 + x33x56x1 + x33x124x1 + x33x110x1 + x33x2x1 + x33x181x1 
<= 1
x160x14x1 + x160x88x1 + x160x134x1 + x160x130x1 + x160x56x1 + x160x124x1 + x160x110x1 + x160x2x1 + x160x181x1 
<= 1
x177x14x1 + x177x88x1 + x177x134x1 + x177x130x1 + x177x56x1 + x177x124x1 + x177x110x1 + x177x2x1 + x177x181x1 
<= 1
x84x88x1 + x84x134x1 + x84x130x1 + x84x56x1 + x84x124x1 + x84x110x1 + x84x2x1 + x84x181x1 
<= 1
x119x124x1 + x119x110x1 + x119x2x1 + x119x181x1 
<= 2
x177x1x2 + x177x82x2 + x177x111x2 + x177x88x2 + x177x72x2 + x177x130x2 + x177x56x2 + x177x57x2 + x177x11x2 + x177x122x2 
<= 1
x111x1x2 + x111x82x2 + x111x88x2 + x111x72x2 + x111x130x2 + x111x56x2 + x111x57x2 + x111x11x2 + x111x122x2 
<= 2
x173x1x2 + x173x82x2 + x173x111x2 + x173x88x2 + x173x72x2 + x173x130x2 + x173x56x2 + x173x57x2 + x173x11x2 + x173x122x2 
<= 1
x140x1x2 + x140x82x2 + x140x111x2 + x140x88x2 + x140x72x2 + x140x130x2 + x140x56x2 + x140x57x2 + x140x11x2 + x140x122x2 
<= 2

x33x57x3 + x33x167x3 + x33x2x3 + x33x181x3 + x33x133x3 
<= 1
x160x82x3 + x160x168x3 + x160x134x3 + x160x57x3 + x160x167x3 + x160x2x3 + x160x181x3 + x160x133x3 
<= 1
x84x82x3 + x84x134x3 + x84x57x3 + x84x167x3 + x84x2x3 + x84x181x3 + x84x133x3 
<= 1
x104x167x3 + x104x2x3 + x104x181x3 + x104x133x3 
<= 2
x173x82x3 + x173x168x3 + x173x134x3 + x173x57x3 + x173x167x3 + x173x2x3 + x173x181x3 + x173x133x3 
<= 1

x177x1x2 + x111x1x2 + x173x1x2 + x140x1x2 
- x1x0x2
- x1x88x2 - x1x72x2 - x1x130x2 - x1x56x2 - x1x57x2 - x1x11x2 - x1x122x2 
= 0


x160x14x1 + x177x14x1 
- x14x0x1
- x14x130x1 - x14x56x1 - x14x124x1 - x14x110x1 - x14x2x1 - x14x181x1 
= 0




- x27x124x1 - x27x110x1 - x27x2x1 - x27x181x1 
= 0




- x29x124x1 - x29x110x1 - x29x2x1 - x29x181x1 
= 0

- x29x57x2 - x29x11x2 - x29x122x2 
= 0



x177x82x2 + x111x82x2 + x173x82x2 + x140x82x2 
- x82x0x2
- x82x88x2 - x82x72x2 - x82x130x2 - x82x56x2 - x82x57x2 - x82x11x2 - x82x122x2 
= 0
x160x82x3 + x84x82x3 + x173x82x3 
- x82x0x3
- x82x134x3 - x82x57x3 - x82x167x3 - x82x2x3 - x82x181x3 - x82x133x3 
= 0


x177x111x2 + x173x111x2 + x140x111x2 
- x111x0x2
- x111x130x2 - x111x56x2 - x111x57x2 - x111x11x2 - x111x122x2 
= 0




x160x168x3 + x173x168x3 
- x168x0x3
- x168x57x3 - x168x167x3 - x168x2x3 - x168x181x3 - x168x133x3 
= 0

x160x88x1 + x177x88x1 + x84x88x1 
- x88x0x1
- x88x130x1 - x88x56x1 - x88x124x1 - x88x110x1 - x88x2x1 - x88x181x1 
= 0
x177x88x2 + x111x88x2 + x173x88x2 + x140x88x2 + x1x88x2 + x82x88x2 
- x88x0x2
- x88x130x2 - x88x56x2 - x88x57x2 - x88x11x2 - x88x122x2 
= 0


x160x134x1 + x177x134x1 + x84x134x1 
- x134x0x1
- x134x130x1 - x134x56x1 - x134x124x1 - x134x110x1 - x134x2x1 - x134x181x1 
= 0

x160x134x3 + x84x134x3 + x173x134x3 + x82x134x3 
- x134x0x3
- x134x57x3 - x134x167x3 - x134x2x3 - x134x181x3 - x134x133x3 
= 0


x177x72x2 + x111x72x2 + x173x72x2 + x140x72x2 + x1x72x2 + x82x72x2 
- x72x0x2
- x72x56x2 - x72x57x2 - x72x11x2 - x72x122x2 
= 0


x33x130x1 + x160x130x1 + x177x130x1 + x84x130x1 + x14x130x1 + x88x130x1 + x134x130x1 
- x130x0x1
- x130x56x1 - x130x124x1 - x130x110x1 - x130x2x1 - x130x181x1 
= 0
x177x130x2 + x111x130x2 + x173x130x2 + x140x130x2 + x1x130x2 + x82x130x2 + x111x130x2 + x88x130x2 
- x130x0x2
- x130x56x2 - x130x57x2 - x130x11x2 - x130x122x2 
= 0


x33x56x1 + x160x56x1 + x177x56x1 + x84x56x1 + x14x56x1 + x88x56x1 + x134x56x1 + x130x56x1 
- x56x0x1
- x56x124x1 - x56x110x1 - x56x2x1 - x56x181x1 
= 0
x177x56x2 + x111x56x2 + x173x56x2 + x140x56x2 + x1x56x2 + x82x56x2 + x111x56x2 + x88x56x2 + x72x56x2 + x130x56x2 
- x56x0x2
- x56x11x2 - x56x122x2 
= 0



x177x57x2 + x111x57x2 + x173x57x2 + x140x57x2 + x1x57x2 + x29x57x2 + x82x57x2 + x111x57x2 + x88x57x2 + x72x57x2 + x130x57x2 
- x57x0x2

= 0
x33x57x3 + x160x57x3 + x84x57x3 + x173x57x3 + x82x57x3 + x168x57x3 + x134x57x3 
- x57x0x3

= 0

x33x124x1 + x160x124x1 + x177x124x1 + x84x124x1 + x119x124x1 + x14x124x1 + x27x124x1 + x29x124x1 + x88x124x1 + x134x124x1 + x130x124x1 + x56x124x1 
- x124x0x1

= 0




x177x11x2 + x111x11x2 + x173x11x2 + x140x11x2 + x1x11x2 + x29x11x2 + x82x11x2 + x111x11x2 + x88x11x2 + x72x11x2 + x130x11x2 + x56x11x2 
- x11x0x2
- x11x122x2 
= 0




x33x167x3 + x160x167x3 + x84x167x3 + x104x167x3 + x173x167x3 + x82x167x3 + x168x167x3 + x134x167x3 
- x167x0x3

= 0

x33x110x1 + x160x110x1 + x177x110x1 + x84x110x1 + x119x110x1 + x14x110x1 + x27x110x1 + x29x110x1 + x88x110x1 + x134x110x1 + x130x110x1 + x56x110x1 
- x110x0x1

= 0



x33x2x1 + x160x2x1 + x177x2x1 + x84x2x1 + x119x2x1 + x14x2x1 + x27x2x1 + x29x2x1 + x88x2x1 + x134x2x1 + x130x2x1 + x56x2x1 
- x2x0x1

= 0

x33x2x3 + x160x2x3 + x84x2x3 + x104x2x3 + x173x2x3 + x82x2x3 + x168x2x3 + x134x2x3 
- x2x0x3

= 0


x177x122x2 + x111x122x2 + x173x122x2 + x140x122x2 + x1x122x2 + x29x122x2 + x82x122x2 + x111x122x2 + x88x122x2 + x72x122x2 + x130x122x2 + x56x122x2 + x11x122x2 
- x122x0x2

= 0


x33x181x1 + x160x181x1 + x177x181x1 + x84x181x1 + x119x181x1 + x14x181x1 + x27x181x1 + x29x181x1 + x88x181x1 + x134x181x1 + x130x181x1 + x56x181x1 
- x181x0x1

= 0

x33x181x3 + x160x181x3 + x84x181x3 + x104x181x3 + x173x181x3 + x82x181x3 + x168x181x3 + x134x181x3 
- x181x0x3

= 0



x33x133x3 + x160x133x3 + x84x133x3 + x104x133x3 + x173x133x3 + x82x133x3 + x168x133x3 + x134x133x3 
- x133x0x3

= 0

2y1 - x177x1x2 - x111x1x2 - x173x1x2 - x140x1x2 = 0
2y14 - x160x14x1 - x177x14x1 = 0
2y27 = 0
1y29 = 0
1y29 = 0
1y82 - x177x82x2 - x111x82x2 - x173x82x2 - x140x82x2 = 0
1y82 - x160x82x3 - x84x82x3 - x173x82x3 = 0
2y111 - x177x111x2 - x173x111x2 - x140x111x2 = 0
2y168 - x160x168x3 - x173x168x3 = 0
1y88 - x160x88x1 - x177x88x1 - x84x88x1 = 0
1y88 - x177x88x2 - x111x88x2 - x173x88x2 - x140x88x2 - x1x88x2 - x82x88x2 = 0
1y134 - x160x134x1 - x177x134x1 - x84x134x1 = 0
1y134 - x160x134x3 - x84x134x3 - x173x134x3 - x82x134x3 = 0
2y72 - x177x72x2 - x111x72x2 - x173x72x2 - x140x72x2 - x1x72x2 - x82x72x2 = 0
1y130 - x33x130x1 - x160x130x1 - x177x130x1 - x84x130x1 - x14x130x1 - x88x130x1 - x134x130x1 = 0
1y130 - x177x130x2 - x111x130x2 - x173x130x2 - x140x130x2 - x1x130x2 - x82x130x2 - x111x130x2 - x88x130x2 = 0
1y56 - x33x56x1 - x160x56x1 - x177x56x1 - x84x56x1 - x14x56x1 - x88x56x1 - x134x56x1 - x130x56x1 = 0
1y56 - x177x56x2 - x111x56x2 - x173x56x2 - x140x56x2 - x1x56x2 - x82x56x2 - x111x56x2 - x88x56x2 - x72x56x2 - x130x56x2 = 0
1y57 - x177x57x2 - x111x57x2 - x173x57x2 - x140x57x2 - x1x57x2 - x29x57x2 - x82x57x2 - x111x57x2 - x88x57x2 - x72x57x2 - x130x57x2 = 0
1y57 - x33x57x3 - x160x57x3 - x84x57x3 - x173x57x3 - x82x57x3 - x168x57x3 - x134x57x3 = 0
2y124 - x33x124x1 - x160x124x1 - x177x124x1 - x84x124x1 - x119x124x1 - x14x124x1 - x27x124x1 - x29x124x1 - x88x124x1 - x134x124x1 - x130x124x1 - x56x124x1 = 0
2y11 - x177x11x2 - x111x11x2 - x173x11x2 - x140x11x2 - x1x11x2 - x29x11x2 - x82x11x2 - x111x11x2 - x88x11x2 - x72x11x2 - x130x11x2 - x56x11x2 = 0
2y167 - x33x167x3 - x160x167x3 - x84x167x3 - x104x167x3 - x173x167x3 - x82x167x3 - x168x167x3 - x134x167x3 = 0
2y110 - x33x110x1 - x160x110x1 - x177x110x1 - x84x110x1 - x119x110x1 - x14x110x1 - x27x110x1 - x29x110x1 - x88x110x1 - x134x110x1 - x130x110x1 - x56x110x1 = 0
1y2 - x33x2x1 - x160x2x1 - x177x2x1 - x84x2x1 - x119x2x1 - x14x2x1 - x27x2x1 - x29x2x1 - x88x2x1 - x134x2x1 - x130x2x1 - x56x2x1 = 0
1y2 - x33x2x3 - x160x2x3 - x84x2x3 - x104x2x3 - x173x2x3 - x82x2x3 - x168x2x3 - x134x2x3 = 0
2y122 - x177x122x2 - x111x122x2 - x173x122x2 - x140x122x2 - x1x122x2 - x29x122x2 - x82x122x2 - x111x122x2 - x88x122x2 - x72x122x2 - x130x122x2 - x56x122x2 - x11x122x2 = 0
1y181 - x33x181x1 - x160x181x1 - x177x181x1 - x84x181x1 - x119x181x1 - x14x181x1 - x27x181x1 - x29x181x1 - x88x181x1 - x134x181x1 - x130x181x1 - x56x181x1 = 0
1y181 - x33x181x3 - x160x181x3 - x84x181x3 - x104x181x3 - x173x181x3 - x82x181x3 - x168x181x3 - x134x181x3 = 0
2y133 - x33x133x3 - x160x133x3 - x84x133x3 - x104x133x3 - x173x133x3 - x82x133x3 - x168x133x3 - x134x133x3 = 0

s33 - s130 + 7.210448z33z130z1 <= 5.25
s33 - s56 + 7.244201z33z56z1 <= 5.25
s33 - s57 + 7.121391z33z57z3 <= 5.25
s33 - s124 + 7.174414z33z124z1 <= 5.25
s33 - s167 + 7.240716z33z167z3 <= 5.25
s33 - s110 + 7.316835z33z110z1 <= 5.25
s33 - s2 + 7.318061z33z2z1 <= 5.25
s33 - s2 + 7.318061z33z2z3 <= 5.25
s33 - s181 + 7.368147z33z181z1 <= 5.25
s33 - s181 + 7.368147z33z181z3 <= 5.25
s33 - s133 + 7.382023z33z133z3 <= 5.25
s160 - s14 + 6.434638z160z14z1 <= 5.09
s160 - s82 + 6.475993z160z82z3 <= 5.09
s160 - s168 + 6.353480z160z168z3 <= 5.09
s160 - s88 + 6.542632z160z88z1 <= 5.09
s160 - s134 + 6.504370z160z134z1 <= 5.09
s160 - s134 + 6.504370z160z134z3 <= 5.09
s160 - s130 + 6.589346z160z130z1 <= 5.09
s160 - s56 + 6.615100z160z56z1 <= 5.09
s160 - s57 + 6.583489z160z57z3 <= 5.09
s160 - s124 + 6.613053z160z124z1 <= 5.09
s160 - s167 + 6.507331z160z167z3 <= 5.09
s160 - s110 + 6.683580z160z110z1 <= 5.09
s160 - s2 + 6.605084z160z2z1 <= 5.09
s160 - s2 + 6.605084z160z2z3 <= 5.09
s160 - s181 + 6.671027z160z181z1 <= 5.09
s160 - s181 + 6.671027z160z181z3 <= 5.09
s160 - s133 + 6.697860z160z133z3 <= 5.09
s177 - s1 + 6.404883z177z1z2 <= 5.12
s177 - s14 + 6.381670z177z14z1 <= 5.12
s177 - s82 + 6.405590z177z82z2 <= 5.12
s177 - s111 + 6.383719z177z111z2 <= 5.12
s177 - s88 + 6.466513z177z88z1 <= 5.12
s177 - s88 + 6.466513z177z88z2 <= 5.12
s177 - s134 + 6.379692z177z134z1 <= 5.12
s177 - s72 + 6.421167z177z72z2 <= 5.12
s177 - s130 + 6.496223z177z130z1 <= 5.12
s177 - s130 + 6.496223z177z130z2 <= 5.12
s177 - s56 + 6.513649z177z56z1 <= 5.12
s177 - s56 + 6.513649z177z56z2 <= 5.12
s177 - s57 + 6.538314z177z57z2 <= 5.12
s177 - s124 + 6.549074z177z124z1 <= 5.12
s177 - s11 + 6.522577z177z11z2 <= 5.12
s177 - s110 + 6.572195z177z110z1 <= 5.12
s177 - s2 + 6.459664z177z2z1 <= 5.12
s177 - s122 + 6.534666z177z122z2 <= 5.12
s177 - s181 + 6.529677z177z181z1 <= 5.12
s84 - s82 + 6.834066z84z82z3 <= 5.45
s84 - s88 + 6.869412z84z88z1 <= 5.45
s84 - s134 + 6.730072z84z134z1 <= 5.45
s84 - s134 + 6.730072z84z134z3 <= 5.45
s84 - s130 + 6.866119z84z130z1 <= 5.45
s84 - s56 + 6.865158z84z56z1 <= 5.45
s84 - s57 + 6.963774z84z57z3 <= 5.45
s84 - s124 + 6.949759z84z124z1 <= 5.45
s84 - s167 + 6.640263z84z167z3 <= 5.45
s84 - s110 + 6.892580z84z110z1 <= 5.45
s84 - s2 + 6.718101z84z2z1 <= 5.45
s84 - s2 + 6.718101z84z2z3 <= 5.45
s84 - s181 + 6.784156z84z181z1 <= 5.45
s84 - s181 + 6.784156z84z181z3 <= 5.45
s84 - s133 + 6.822930z84z133z3 <= 5.45
s104 - s167 + 7.234410z104z167z3 <= 5.98
s104 - s2 + 7.317734z104z2z3 <= 5.98
s104 - s181 + 7.384594z104z181z3 <= 5.98
s104 - s133 + 7.423313z104z133z3 <= 5.98
s111 - s1 + 6.682303z111z1z2 <= 5.62
s111 - s82 + 6.715526z111z82z2 <= 5.62
s111 - s88 + 6.772219z111z88z2 <= 5.62
s111 - s72 + 6.834596z111z72z2 <= 5.62
s111 - s130 + 6.830297z111z130z2 <= 5.62
s111 - s56 + 6.862780z111z56z2 <= 5.62
s111 - s57 + 6.794437z111z57z2 <= 5.62
s111 - s11 + 6.940880z111z11z2 <= 5.62
s111 - s122 + 6.982516z111z122z2 <= 5.62
s119 - s124 + 7.500028z119z124z1 <= 5.95
s119 - s110 + 7.416983z119z110z1 <= 5.95
s119 - s2 + 7.235112z119z2z1 <= 5.95
s119 - s181 + 7.289555z119z181z1 <= 5.95
s173 - s1 + 6.202610z173z1z2 <= 4.78
s173 - s82 + 6.221122z173z82z2 <= 4.78
s173 - s82 + 6.221122z173z82z3 <= 4.78
s173 - s111 + 6.148616z173z111z2 <= 4.78
s173 - s168 + 6.098480z173z168z3 <= 4.78
s173 - s88 + 6.287762z173z88z2 <= 4.78
s173 - s134 + 6.246872z173z134z3 <= 4.78
s173 - s72 + 6.283535z173z72z2 <= 4.78
s173 - s130 + 6.334293z173z130z2 <= 4.78
s173 - s56 + 6.359808z173z56z2 <= 4.78
s173 - s57 + 6.327749z173z57z2 <= 4.78
s173 - s57 + 6.327749z173z57z3 <= 4.78
s173 - s11 + 6.394434z173z11z2 <= 4.78
s173 - s167 + 6.244817z173z167z3 <= 4.78
s173 - s2 + 6.344440z173z2z3 <= 4.78
s173 - s122 + 6.414780z173z122z2 <= 4.78
s173 - s181 + 6.411546z173z181z3 <= 4.78
s173 - s133 + 6.439336z173z133z3 <= 4.78
s140 - s1 + 6.312893z140z1z2 <= 4.80
s140 - s82 + 6.314222z140z82z2 <= 4.80
s140 - s111 + 6.285409z140z111z2 <= 4.80
s140 - s88 + 6.374308z140z88z2 <= 4.80
s140 - s72 + 6.316103z140z72z2 <= 4.80
s140 - s130 + 6.400069z140z130z2 <= 4.80
s140 - s56 + 6.414093z140z56z2 <= 4.80
s140 - s57 + 6.446710z140z57z2 <= 4.80
s140 - s11 + 6.403989z140z11z2 <= 4.80
s140 - s122 + 6.403514z140z122z2 <= 4.80
s1 - s88 + 7.860676z1z88z2 <= 6.77
s1 - s72 + 7.931245z1z72z2 <= 6.77
s1 - s130 + 7.918024z1z130z2 <= 6.77
s1 - s56 + 7.950493z1z56z2 <= 6.77
s1 - s57 + 7.904164z1z57z2 <= 6.77
s1 - s11 + 8.031959z1z11z2 <= 6.77
s1 - s122 + 8.075869z1z122z2 <= 6.77
s14 - s130 + 7.854924z14z130z1 <= 6.69
s14 - s56 + 7.886186z14z56z1 <= 6.69
s14 - s124 + 7.869134z14z124z1 <= 6.69
s14 - s110 + 7.959650z14z110z1 <= 6.69
s14 - s2 + 7.967849z14z2z1 <= 6.69
s14 - s181 + 8.006227z14z181z1 <= 6.69
s27 - s124 + 7.392073z27z124z1 <= 6.04
s27 - s110 + 7.514084z27z110z1 <= 6.04
s27 - s2 + 7.512252z27z2z1 <= 6.04
s27 - s181 + 7.559187z27z181z1 <= 6.04
s29 - s57 + 7.319026z29z57z2 <= 6.00
s29 - s124 + 7.362828z29z124z1 <= 6.00
s29 - s11 + 7.482263z29z11z2 <= 6.00
s29 - s110 + 7.481664z29z110z1 <= 6.00
s29 - s2 + 7.474459z29z2z1 <= 6.00
s29 - s122 + 7.520598z29z122z2 <= 6.00
s29 - s181 + 7.522983z29z181z1 <= 6.00
s82 - s88 + 7.916667z82z88z2 <= 6.85
s82 - s134 + 7.978063z82z134z3 <= 6.85
s82 - s72 + 7.975786z82z72z2 <= 6.85
s82 - s130 + 7.968133z82z130z2 <= 6.85
s82 - s56 + 7.999071z82z56z2 <= 6.85
s82 - s57 + 7.985974z82z57z2 <= 6.85
s82 - s57 + 7.985974z82z57z3 <= 6.85
s82 - s11 + 8.076372z82z11z2 <= 6.85
s82 - s167 + 8.067664z82z167z3 <= 6.85
s82 - s2 + 8.092670z82z2z3 <= 6.85
s82 - s122 + 8.119980z82z122z2 <= 6.85
s82 - s181 + 8.124874z82z181z3 <= 6.85
s82 - s133 + 8.132999z82z133z3 <= 6.85
s111 - s130 + 7.754993z111z130z2 <= 6.54
s111 - s56 + 7.787476z111z56z2 <= 6.54
s111 - s57 + 7.719133z111z57z2 <= 6.54
s111 - s11 + 7.865576z111z11z2 <= 6.54
s111 - s122 + 7.907212z111z122z2 <= 6.54
s168 - s57 + 7.693334z168z57z3 <= 6.46
s168 - s167 + 7.715169z168z167z3 <= 6.46
s168 - s2 + 7.780555z168z2z3 <= 6.46
s168 - s181 + 7.830525z168z181z3 <= 6.46
s168 - s133 + 7.847184z168z133z3 <= 6.46
s88 - s130 + 8.170369z88z130z1 <= 7.11
s88 - s130 + 8.170369z88z130z2 <= 7.11
s88 - s56 + 8.204281z88z56z1 <= 7.11
s88 - s56 + 8.204281z88z56z2 <= 7.11
s88 - s57 + 8.207068z88z57z2 <= 7.11
s88 - s124 + 8.194327z88z124z1 <= 7.11
s88 - s11 + 8.301021z88z11z2 <= 7.11
s88 - s110 + 8.276800z88z110z1 <= 7.11
s88 - s2 + 8.343333z88z2z1 <= 7.11
s88 - s122 + 8.350370z88z122z2 <= 7.11
s88 - s181 + 8.358014z88z181z1 <= 7.11
s134 - s130 + 8.287437z134z130z1 <= 7.15
s134 - s56 + 8.293139z134z56z1 <= 7.15
s134 - s57 + 8.389351z134z57z3 <= 7.15
s134 - s124 + 8.370000z134z124z1 <= 7.15
s134 - s167 + 8.245452z134z167z3 <= 7.15
s134 - s110 + 8.343333z134z110z1 <= 7.15
s134 - s2 + 8.272565z134z2z1 <= 7.15
s134 - s2 + 8.272565z134z2z3 <= 7.15
s134 - s181 + 8.323462z134z181z1 <= 7.15
s134 - s181 + 8.323462z134z181z3 <= 7.15
s134 - s133 + 8.345163z134z133z3 <= 7.15
s72 - s56 + 8.291544z72z56z2 <= 7.19
s72 - s57 + 8.405407z72z57z2 <= 7.19
s72 - s11 + 8.304115z72z11z2 <= 7.19
s72 - s122 + 8.339071z72z122z2 <= 7.19
s130 - s56 + 8.323994z130z56z1 <= 7.29
s130 - s56 + 8.323994z130z56z2 <= 7.29
s130 - s57 + 8.422330z130z57z2 <= 7.29
s130 - s124 + 8.382856z130z124z1 <= 7.29
s130 - s11 + 8.427437z130z11z2 <= 7.29
s130 - s110 + 8.396667z130z110z1 <= 7.29
s130 - s2 + 8.486977z130z2z1 <= 7.29
s130 - s122 + 8.478797z130z122z2 <= 7.29
s130 - s181 + 8.487989z130z181z1 <= 7.29
s56 - s124 + 8.494698z56z124z1 <= 7.38
s56 - s11 + 8.488525z56z11z2 <= 7.38
s56 - s110 + 8.453636z56z110z1 <= 7.38
s56 - s2 + 8.559505z56z2z1 <= 7.38
s56 - s122 + 8.540555z56z122z2 <= 7.38
s56 - s181 + 8.550750z56z181z1 <= 7.38
s11 - s122 + 8.602069z11z122z2 <= 7.55

x33x130x1 - 1z33z130z1 <= 0
x33x56x1 - 1z33z56z1 <= 0
x33x57x3 - 1z33z57z3 <= 0
x33x124x1 - 2z33z124z1 <= 0
x33x167x3 - 2z33z167z3 <= 0
x33x110x1 - 2z33z110z1 <= 0
x33x2x1 - 1z33z2z1 <= 0
x33x2x3 - 1z33z2z3 <= 0
x33x181x1 - 1z33z181z1 <= 0
x33x181x3 - 1z33z181z3 <= 0
x33x133x3 - 2z33z133z3 <= 0
x160x14x1 - 2z160z14z1 <= 0
x160x82x3 - 1z160z82z3 <= 0
x160x168x3 - 2z160z168z3 <= 0
x160x88x1 - 1z160z88z1 <= 0
x160x134x1 - 1z160z134z1 <= 0
x160x134x3 - 1z160z134z3 <= 0
x160x130x1 - 1z160z130z1 <= 0
x160x56x1 - 1z160z56z1 <= 0
x160x57x3 - 1z160z57z3 <= 0
x160x124x1 - 2z160z124z1 <= 0
x160x167x3 - 2z160z167z3 <= 0
x160x110x1 - 2z160z110z1 <= 0
x160x2x1 - 1z160z2z1 <= 0
x160x2x3 - 1z160z2z3 <= 0
x160x181x1 - 1z160z181z1 <= 0
x160x181x3 - 1z160z181z3 <= 0
x160x133x3 - 2z160z133z3 <= 0
x177x1x2 - 2z177z1z2 <= 0
x177x14x1 - 2z177z14z1 <= 0
x177x82x2 - 1z177z82z2 <= 0
x177x111x2 - 2z177z111z2 <= 0
x177x88x1 - 1z177z88z1 <= 0
x177x88x2 - 1z177z88z2 <= 0
x177x134x1 - 1z177z134z1 <= 0
x177x72x2 - 2z177z72z2 <= 0
x177x130x1 - 1z177z130z1 <= 0
x177x130x2 - 1z177z130z2 <= 0
x177x56x1 - 1z177z56z1 <= 0
x177x56x2 - 1z177z56z2 <= 0
x177x57x2 - 1z177z57z2 <= 0
x177x124x1 - 2z177z124z1 <= 0
x177x11x2 - 2z177z11z2 <= 0
x177x110x1 - 2z177z110z1 <= 0
x177x2x1 - 1z177z2z1 <= 0
x177x122x2 - 2z177z122z2 <= 0
x177x181x1 - 1z177z181z1 <= 0
x84x82x3 - 1z84z82z3 <= 0
x84x88x1 - 1z84z88z1 <= 0
x84x134x1 - 1z84z134z1 <= 0
x84x134x3 - 1z84z134z3 <= 0
x84x130x1 - 1z84z130z1 <= 0
x84x56x1 - 1z84z56z1 <= 0
x84x57x3 - 1z84z57z3 <= 0
x84x124x1 - 2z84z124z1 <= 0
x84x167x3 - 2z84z167z3 <= 0
x84x110x1 - 2z84z110z1 <= 0
x84x2x1 - 1z84z2z1 <= 0
x84x2x3 - 1z84z2z3 <= 0
x84x181x1 - 1z84z181z1 <= 0
x84x181x3 - 1z84z181z3 <= 0
x84x133x3 - 2z84z133z3 <= 0
x104x167x3 - 2z104z167z3 <= 0
x104x2x3 - 1z104z2z3 <= 0
x104x181x3 - 1z104z181z3 <= 0
x104x133x3 - 2z104z133z3 <= 0
x111x1x2 - 2z111z1z2 <= 0
x111x82x2 - 1z111z82z2 <= 0
x111x88x2 - 1z111z88z2 <= 0
x111x72x2 - 2z111z72z2 <= 0
x111x130x2 - 1z111z130z2 <= 0
x111x56x2 - 1z111z56z2 <= 0
x111x57x2 - 1z111z57z2 <= 0
x111x11x2 - 2z111z11z2 <= 0
x111x122x2 - 2z111z122z2 <= 0
x119x124x1 - 2z119z124z1 <= 0
x119x110x1 - 2z119z110z1 <= 0
x119x2x1 - 1z119z2z1 <= 0
x119x181x1 - 1z119z181z1 <= 0
x173x1x2 - 2z173z1z2 <= 0
x173x82x2 - 1z173z82z2 <= 0
x173x82x3 - 1z173z82z3 <= 0
x173x111x2 - 2z173z111z2 <= 0
x173x168x3 - 2z173z168z3 <= 0
x173x88x2 - 1z173z88z2 <= 0
x173x134x3 - 1z173z134z3 <= 0
x173x72x2 - 2z173z72z2 <= 0
x173x130x2 - 1z173z130z2 <= 0
x173x56x2 - 1z173z56z2 <= 0
x173x57x2 - 1z173z57z2 <= 0
x173x57x3 - 1z173z57z3 <= 0
x173x11x2 - 2z173z11z2 <= 0
x173x167x3 - 2z173z167z3 <= 0
x173x2x3 - 1z173z2z3 <= 0
x173x122x2 - 2z173z122z2 <= 0
x173x181x3 - 1z173z181z3 <= 0
x173x133x3 - 2z173z133z3 <= 0
x140x1x2 - 2z140z1z2 <= 0
x140x82x2 - 1z140z82z2 <= 0
x140x111x2 - 2z140z111z2 <= 0
x140x88x2 - 1z140z88z2 <= 0
x140x72x2 - 2z140z72z2 <= 0
x140x130x2 - 1z140z130z2 <= 0
x140x56x2 - 1z140z56z2 <= 0
x140x57x2 - 1z140z57z2 <= 0
x140x11x2 - 2z140z11z2 <= 0
x140x122x2 - 2z140z122z2 <= 0
x1x88x2 - 1z1z88z2 <= 0
x1x72x2 - 2z1z72z2 <= 0
x1x130x2 - 1z1z130z2 <= 0
x1x56x2 - 1z1z56z2 <= 0
x1x57x2 - 1z1z57z2 <= 0
x1x11x2 - 2z1z11z2 <= 0
x1x122x2 - 2z1z122z2 <= 0
x1x0x2 <= 2
x14x130x1 - 1z14z130z1 <= 0
x14x56x1 - 1z14z56z1 <= 0
x14x124x1 - 2z14z124z1 <= 0
x14x110x1 - 2z14z110z1 <= 0
x14x2x1 - 1z14z2z1 <= 0
x14x181x1 - 1z14z181z1 <= 0
x14x0x1 <= 2
x27x124x1 - 2z27z124z1 <= 0
x27x110x1 - 2z27z110z1 <= 0
x27x2x1 - 1z27z2z1 <= 0
x27x181x1 - 1z27z181z1 <= 0
x27x0x1 <= 2
x29x57x2 - 1z29z57z2 <= 0
x29x124x1 - 2z29z124z1 <= 0
x29x11x2 - 2z29z11z2 <= 0
x29x110x1 - 2z29z110z1 <= 0
x29x2x1 - 1z29z2z1 <= 0
x29x122x2 - 2z29z122z2 <= 0
x29x181x1 - 1z29z181z1 <= 0
x29x0x1 <= 1
x29x0x2 <= 1
x82x88x2 - 1z82z88z2 <= 0
x82x134x3 - 1z82z134z3 <= 0
x82x72x2 - 2z82z72z2 <= 0
x82x130x2 - 1z82z130z2 <= 0
x82x56x2 - 1z82z56z2 <= 0
x82x57x2 - 1z82z57z2 <= 0
x82x57x3 - 1z82z57z3 <= 0
x82x11x2 - 2z82z11z2 <= 0
x82x167x3 - 2z82z167z3 <= 0
x82x2x3 - 1z82z2z3 <= 0
x82x122x2 - 2z82z122z2 <= 0
x82x181x3 - 1z82z181z3 <= 0
x82x133x3 - 2z82z133z3 <= 0
x82x0x2 <= 1
x82x0x3 <= 1
x111x130x2 - 1z111z130z2 <= 0
x111x56x2 - 1z111z56z2 <= 0
x111x57x2 - 1z111z57z2 <= 0
x111x11x2 - 2z111z11z2 <= 0
x111x122x2 - 2z111z122z2 <= 0
x111x0x2 <= 2
x168x57x3 - 1z168z57z3 <= 0
x168x167x3 - 2z168z167z3 <= 0
x168x2x3 - 1z168z2z3 <= 0
x168x181x3 - 1z168z181z3 <= 0
x168x133x3 - 2z168z133z3 <= 0
x168x0x3 <= 2
x88x130x1 - 1z88z130z1 <= 0
x88x130x2 - 1z88z130z2 <= 0
x88x56x1 - 1z88z56z1 <= 0
x88x56x2 - 1z88z56z2 <= 0
x88x57x2 - 1z88z57z2 <= 0
x88x124x1 - 2z88z124z1 <= 0
x88x11x2 - 2z88z11z2 <= 0
x88x110x1 - 2z88z110z1 <= 0
x88x2x1 - 1z88z2z1 <= 0
x88x122x2 - 2z88z122z2 <= 0
x88x181x1 - 1z88z181z1 <= 0
x88x0x1 <= 1
x88x0x2 <= 1
x134x130x1 - 1z134z130z1 <= 0
x134x56x1 - 1z134z56z1 <= 0
x134x57x3 - 1z134z57z3 <= 0
x134x124x1 - 2z134z124z1 <= 0
x134x167x3 - 2z134z167z3 <= 0
x134x110x1 - 2z134z110z1 <= 0
x134x2x1 - 1z134z2z1 <= 0
x134x2x3 - 1z134z2z3 <= 0
x134x181x1 - 1z134z181z1 <= 0
x134x181x3 - 1z134z181z3 <= 0
x134x133x3 - 2z134z133z3 <= 0
x134x0x1 <= 1
x134x0x3 <= 1
x72x56x2 - 1z72z56z2 <= 0
x72x57x2 - 1z72z57z2 <= 0
x72x11x2 - 2z72z11z2 <= 0
x72x122x2 - 2z72z122z2 <= 0
x72x0x2 <= 2
x130x56x1 - 1z130z56z1 <= 0
x130x56x2 - 1z130z56z2 <= 0
x130x57x2 - 1z130z57z2 <= 0
x130x124x1 - 2z130z124z1 <= 0
x130x11x2 - 2z130z11z2 <= 0
x130x110x1 - 2z130z110z1 <= 0
x130x2x1 - 1z130z2z1 <= 0
x130x122x2 - 2z130z122z2 <= 0
x130x181x1 - 1z130z181z1 <= 0
x130x0x1 <= 1
x130x0x2 <= 1
x56x124x1 - 2z56z124z1 <= 0
x56x11x2 - 2z56z11z2 <= 0
x56x110x1 - 2z56z110z1 <= 0
x56x2x1 - 1z56z2z1 <= 0
x56x122x2 - 2z56z122z2 <= 0
x56x181x1 - 1z56z181z1 <= 0
x56x0x1 <= 1
x56x0x2 <= 1
x57x0x2 <= 1
x57x0x3 <= 1
x124x0x1 <= 2
x11x122x2 - 2z11z122z2 <= 0
x11x0x2 <= 2
x167x0x3 <= 2
x110x0x1 <= 2
x2x0x1 <= 1
x2x0x3 <= 1
x122x0x2 <= 2
x181x0x1 <= 1
x181x0x3 <= 1
x133x0x3 <= 2

Bounds
s33 = 5.247651
s160 = 5.093138
s177 = 5.122355
s84 = 5.449359
s104 = 5.979241
s111 = 5.615304
s119 = 5.950078
s173 = 4.780920
s140 = 4.795420
6.000000 <= s1 <= 6.770000
6.000000 <= s14 <= 6.690000
6.000000 <= s27 <= 6.040000
6.000000 <= s29 <= 6.000000
6.000000 <= s82 <= 6.850000
6.000000 <= s111 <= 6.540000
6.000000 <= s168 <= 6.460000
6.110000 <= s88 <= 7.110000
6.150000 <= s134 <= 7.150000
6.190000 <= s72 <= 7.190000
6.290000 <= s130 <= 7.290000
6.380000 <= s56 <= 7.380000
6.440000 <= s57 <= 7.440000
6.530000 <= s124 <= 7.530000
6.550000 <= s11 <= 7.550000
6.550000 <= s167 <= 7.550000
6.630000 <= s110 <= 7.630000
6.650000 <= s2 <= 7.650000
6.700000 <= s122 <= 7.700000
6.720000 <= s181 <= 7.720000
6.740000 <= s133 <= 7.740000

General
x33x130x1 x33x56x1 x33x57x3 x33x124x1 x33x167x3 x33x110x1 x33x2x1 x33x2x3 x33x181x1 x33x181x3 x33x133x3 
x160x14x1 x160x82x3 x160x168x3 x160x88x1 x160x134x1 x160x134x3 x160x130x1 x160x56x1 x160x57x3 x160x124x1 x160x167x3 x160x110x1 x160x2x1 x160x2x3 x160x181x1 x160x181x3 x160x133x3 
x177x1x2 x177x14x1 x177x82x2 x177x111x2 x177x88x1 x177x88x2 x177x134x1 x177x72x2 x177x130x1 x177x130x2 x177x56x1 x177x56x2 x177x57x2 x177x124x1 x177x11x2 x177x110x1 x177x2x1 x177x122x2 x177x181x1 
x84x82x3 x84x88x1 x84x134x1 x84x134x3 x84x130x1 x84x56x1 x84x57x3 x84x124x1 x84x167x3 x84x110x1 x84x2x1 x84x2x3 x84x181x1 x84x181x3 x84x133x3 
x104x167x3 x104x2x3 x104x181x3 x104x133x3 
x111x1x2 x111x82x2 x111x88x2 x111x72x2 x111x130x2 x111x56x2 x111x57x2 x111x11x2 x111x122x2 
x119x124x1 x119x110x1 x119x2x1 x119x181x1 
x173x1x2 x173x82x2 x173x82x3 x173x111x2 x173x168x3 x173x88x2 x173x134x3 x173x72x2 x173x130x2 x173x56x2 x173x57x2 x173x57x3 x173x11x2 x173x167x3 x173x2x3 x173x122x2 x173x181x3 x173x133x3 
x140x1x2 x140x82x2 x140x111x2 x140x88x2 x140x72x2 x140x130x2 x140x56x2 x140x57x2 x140x11x2 x140x122x2 
x1x88x2 x1x72x2 x1x130x2 x1x56x2 x1x57x2 x1x11x2 x1x122x2 x1x0x2 
x14x130x1 x14x56x1 x14x124x1 x14x110x1 x14x2x1 x14x181x1 x14x0x1 
x27x124x1 x27x110x1 x27x2x1 x27x181x1 x27x0x1 
x29x57x2 x29x124x1 x29x11x2 x29x110x1 x29x2x1 x29x122x2 x29x181x1 x29x0x1 x29x0x2 
x82x88x2 x82x134x3 x82x72x2 x82x130x2 x82x56x2 x82x57x2 x82x57x3 x82x11x2 x82x167x3 x82x2x3 x82x122x2 x82x181x3 x82x133x3 x82x0x2 x82x0x3 
x111x130x2 x111x56x2 x111x57x2 x111x11x2 x111x122x2 x111x0x2 
x168x57x3 x168x167x3 x168x2x3 x168x181x3 x168x133x3 x168x0x3 
x88x130x1 x88x130x2 x88x56x1 x88x56x2 x88x57x2 x88x124x1 x88x11x2 x88x110x1 x88x2x1 x88x122x2 x88x181x1 x88x0x1 x88x0x2 
x134x130x1 x134x56x1 x134x57x3 x134x124x1 x134x167x3 x134x110x1 x134x2x1 x134x2x3 x134x181x1 x134x181x3 x134x133x3 x134x0x1 x134x0x3 
x72x56x2 x72x57x2 x72x11x2 x72x122x2 x72x0x2 
x130x56x1 x130x56x2 x130x57x2 x130x124x1 x130x11x2 x130x110x1 x130x2x1 x130x122x2 x130x181x1 x130x0x1 x130x0x2 
x56x124x1 x56x11x2 x56x110x1 x56x2x1 x56x122x2 x56x181x1 x56x0x1 x56x0x2 
x57x0x2 x57x0x3 
x124x0x1 
x11x122x2 x11x0x2 
x167x0x3 
x110x0x1 
x2x0x1 x2x0x3 
x122x0x2 
x181x0x1 x181x0x3 
x133x0x3 

Binaries
y1 y14 y27 y29 y82 y111 y168 y88 y134 y72 y130 y56 y57 y124 y11 y167 y110 y2 y122 y181 y133 
z33z130z1 z33z56z1 z33z57z3 z33z124z1 z33z167z3 z33z110z1 z33z2z1 z33z2z3 z33z181z1 z33z181z3 z33z133z3 
z160z14z1 z160z82z3 z160z168z3 z160z88z1 z160z134z1 z160z134z3 z160z130z1 z160z56z1 z160z57z3 z160z124z1 z160z167z3 z160z110z1 z160z2z1 z160z2z3 z160z181z1 z160z181z3 z160z133z3 
z177z1z2 z177z14z1 z177z82z2 z177z111z2 z177z88z1 z177z88z2 z177z134z1 z177z72z2 z177z130z1 z177z130z2 z177z56z1 z177z56z2 z177z57z2 z177z124z1 z177z11z2 z177z110z1 z177z2z1 z177z122z2 z177z181z1 
z84z82z3 z84z88z1 z84z134z1 z84z134z3 z84z130z1 z84z56z1 z84z57z3 z84z124z1 z84z167z3 z84z110z1 z84z2z1 z84z2z3 z84z181z1 z84z181z3 z84z133z3 
z104z167z3 z104z2z3 z104z181z3 z104z133z3 
z111z1z2 z111z82z2 z111z88z2 z111z72z2 z111z130z2 z111z56z2 z111z57z2 z111z11z2 z111z122z2 
z119z124z1 z119z110z1 z119z2z1 z119z181z1 
z173z1z2 z173z82z2 z173z82z3 z173z111z2 z173z168z3 z173z88z2 z173z134z3 z173z72z2 z173z130z2 z173z56z2 z173z57z2 z173z57z3 z173z11z2 z173z167z3 z173z2z3 z173z122z2 z173z181z3 z173z133z3 
z140z1z2 z140z82z2 z140z111z2 z140z88z2 z140z72z2 z140z130z2 z140z56z2 z140z57z2 z140z11z2 z140z122z2 
z1z88z2 z1z72z2 z1z130z2 z1z56z2 z1z57z2 z1z11z2 z1z122z2 
z14z130z1 z14z56z1 z14z124z1 z14z110z1 z14z2z1 z14z181z1 
z27z124z1 z27z110z1 z27z2z1 z27z181z1 
z29z57z2 z29z124z1 z29z11z2 z29z110z1 z29z2z1 z29z122z2 z29z181z1 
z82z88z2 z82z134z3 z82z72z2 z82z130z2 z82z56z2 z82z57z2 z82z57z3 z82z11z2 z82z167z3 z82z2z3 z82z122z2 z82z181z3 z82z133z3 
z111z130z2 z111z56z2 z111z57z2 z111z11z2 z111z122z2 
z168z57z3 z168z167z3 z168z2z3 z168z181z3 z168z133z3 
z88z130z1 z88z130z2 z88z56z1 z88z56z2 z88z57z2 z88z124z1 z88z11z2 z88z110z1 z88z2z1 z88z122z2 z88z181z1 
z134z130z1 z134z56z1 z134z57z3 z134z124z1 z134z167z3 z134z110z1 z134z2z1 z134z2z3 z134z181z1 z134z181z3 z134z133z3 
z72z56z2 z72z57z2 z72z11z2 z72z122z2 
z130z56z1 z130z56z2 z130z57z2 z130z124z1 z130z11z2 z130z110z1 z130z2z1 z130z122z2 z130z181z1 
z56z124z1 z56z11z2 z56z110z1 z56z2z1 z56z122z2 z56z181z1 


z11z122z2 







End